p edge 22 66
e 1 2
e 1 19
e 1 21
e 2 3
e 2 4
e 2 7
e 3 1
e 3 16
e 3 19
e 4 11
e 4 21
e 4 22
e 5 6
e 5 12
e 5 13
e 6 5
e 6 14
e 6 22
e 7 6
e 7 14
e 7 19
e 8 6
e 8 13
e 8 21
e 9 8
e 9 8
e 9 14
e 10 7
e 10 15
e 10 17
e 11 3
e 11 7
e 11 15
e 12 5
e 12 18
e 12 18
e 13 1
e 13 3
e 13 9
e 14 2
e 14 7
e 14 7
e 15 11
e 15 12
e 15 18
e 16 3
e 16 14
e 16 17
e 17 6
e 17 12
e 17 21
e 18 4
e 18 17
e 18 19
e 19 1
e 19 2
e 19 15
e 20 6
e 20 10
e 20 14
e 21 6
e 21 8
e 21 18
e 22 2
e 22 11
e 22 13
